48
100
80	2
79	4
78	3
77	4
76	3
75	1
73	2
72	1
71	1
70	3
69	1
68	1
67	1
64	3
63	2
62	2
61	1
60	4
59	2
57	3
56	1
55	2
53	1
51	1
50	2
49	2
48	4
47	2
46	2
45	2
44	4
43	1
41	2
40	1
39	1
38	3
37	2
35	2
34	3
32	1
30	5
29	2
26	1
25	2
24	2
23	1
22	1
20	3
